3 
4 
5  06 21 36 51 
6  06 18 25 33 40 46 54 
7  01 09 16 24 31 39 46 54 
8  01 09 16 24 31 39 46 54 
9  01 09 16 24 31 39 46 54 
10  01 09 16 24 31 39 46 54 
11  01 09 16 24 31 39 46 54 
12  01 09 16 24 31 39 46 54 
13  01 08 15 23 30 38 45 53 
14  00 08 15 23 30 38 45 53 
15  00 07 15 22 30 37 45 52 
16  00 07 15 22 30 37 45 52 
17  00 07 15 22 30 37 45 52 
18  00 07 15 22 30 37 45 52 
19  00 07 16 24 32 39 47 55 
20  02 09 17 24 37 52 
21  07 22 37 52 
22  07 20 35 48 
23  01 
0 
